74 196 124 83 160 199 128 57 102 161 119 130 54 17 193 66 175 106 134 98 169 138 198 114 19 36 143 172 33 155 7 157 68 65 189 79 190 187 152 197 64 132 145 62 142 77 108 164 10 96 166 0 37 104 28 131 89 22 46 55 150 141 14 180 23 194 53 58 61 70 121 44 63 2 84 50 156 11 195 129 92 115 5 163 165 47 52 146 167 80 125 136 85 20 25 27 162 105 176 86 6 126 90 97 48 185 91 78 101 133 137 168 16 184 110 192 111 35 87 38 120 151 188 116 95 103 39 183 122 154 31 179 15 112 59 9 45 113 99 12 49 182 8 149 109 139 69 67 159 82 158 117 140 181 34 72 93 144 94 4 147 18 177 24 43 191 135 13 170 171 73 60 123 26 118 41 21 32 30 51 88 127 107 178 174 75 71 56 186 100 148 40 81 173 153 3 42 76 1 29